pr8_2
0 45 33 107 30 106 12 34 62 85 89 78 127 134 79 138 111 102 145 114 39 68 40 55 28 13 21 43 118 27 66 115 125 14 17 74 54 126 139 144 10 8 70 64 5 141 140 130 73 82 20 51 46 97 149 77 29 61 38 37 81 90 69 112 6 117 129 105 41 26 57 91 100 99 94 63 65 7 35 53 60 86 103 135 25 83 116 22 2 119 71 44 52 16 80 49 59 128 120 18 132 58 98 146 32 101 15 109 47 133 108 9 23 56 123 31 147 95 0 76 104 48 96 50 113 42 92 122 75 72 84 11 67 19 143 88 110 93 124 131 148 24 0 137 136 36 142 87 121 0